(set-logic QF_LRA)
(declare-fun fluent_counter_t3@1 () Real)
(declare-fun fluent_busy_@1 () Bool)
(declare-fun fluent_started_i0_t0@1 () Bool)
(declare-fun fluent_started_i1_t0@1 () Bool)
(declare-fun fluent_started_i0_t0@0 () Bool)
(declare-fun fluent_started_i1_t0@0 () Bool)
(declare-fun fluent_started_i2_t0@0 () Bool)
(declare-fun fluent_started_i0_t1@0 () Bool)
(declare-fun fluent_started_i1_t1@0 () Bool)
(declare-fun fluent_started_i2_t1@0 () Bool)
(declare-fun fluent_started_i0_t2@0 () Bool)
(declare-fun fluent_started_i1_t2@0 () Bool)
(declare-fun fluent_started_i2_t2@0 () Bool)
(declare-fun fluent_started_i0_t3@0 () Bool)
(declare-fun fluent_started_i2_t0@1 () Bool)
(declare-fun fluent_ready_i0_t0@0 () Bool)
(declare-fun fluent_ready_i1_t0@0 () Bool)
(declare-fun fluent_ready_i2_t0@0 () Bool)
(declare-fun fluent_ready_i0_t1@0 () Bool)
(declare-fun fluent_ready_i1_t1@0 () Bool)
(declare-fun fluent_ready_i2_t1@0 () Bool)
(declare-fun fluent_ready_i0_t2@0 () Bool)
(declare-fun fluent_ready_i1_t2@0 () Bool)
(declare-fun fluent_ready_i2_t2@0 () Bool)
(declare-fun fluent_ready_i0_t3@0 () Bool)
(declare-fun fluent_ready_i1_t3@0 () Bool)
(declare-fun fluent_ready_i2_t3@0 () Bool)
(declare-fun fluent_started_i0_t3@1 () Bool)
(declare-fun fluent_started_i1_t3@0 () Bool)
(declare-fun fluent_started_i1_t3@1 () Bool)
(declare-fun fluent_started_i2_t3@1 () Bool)
(declare-fun fluent_started_i2_t3@0 () Bool)
(declare-fun fluent_treated_i0_t0@1 () Bool)
(declare-fun fluent_treated_i1_t0@1 () Bool)
(declare-fun fluent_busy_@0 () Bool)
(declare-fun fluent_treated_i2_t0@1 () Bool)
(declare-fun fluent_treated_i0_t0@0 () Bool)
(declare-fun fluent_treated_i1_t0@0 () Bool)
(declare-fun fluent_treated_i2_t0@0 () Bool)
(declare-fun fluent_treated_i0_t1@0 () Bool)
(declare-fun fluent_treated_i1_t1@0 () Bool)
(declare-fun fluent_treated_i2_t1@0 () Bool)
(declare-fun fluent_treated_i0_t2@0 () Bool)
(declare-fun fluent_treated_i1_t2@0 () Bool)
(declare-fun fluent_treated_i2_t2@0 () Bool)
(declare-fun fluent_treated_i0_t3@0 () Bool)
(declare-fun fluent_treated_i1_t3@0 () Bool)
(declare-fun fluent_treated_i2_t3@0 () Bool)
(declare-fun fluent_treated_i0_t2@1 () Bool)
(declare-fun fluent_treated_i1_t2@1 () Bool)
(declare-fun fluent_treated_i2_t2@1 () Bool)
(declare-fun fluent_treated_i2_t3@1 () Bool)
(declare-fun fluent_treated_i0_t3@1 () Bool)
(declare-fun fluent_treated_i1_t3@1 () Bool)
(declare-fun fluent_ready_i0_t0@1 () Bool)
(declare-fun fluent_ready_i1_t0@1 () Bool)
(declare-fun fluent_ready_i2_t0@1 () Bool)
(declare-fun fluent_ready_i0_t1@1 () Bool)
(declare-fun fluent_ready_i1_t1@1 () Bool)
(declare-fun fluent_ready_i2_t1@1 () Bool)
(declare-fun fluent_ready_i0_t2@1 () Bool)
(declare-fun fluent_ready_i1_t2@1 () Bool)
(declare-fun fluent_ready_i2_t2@1 () Bool)
(declare-fun fluent_ready_i0_t3@1 () Bool)
(declare-fun fluent_counter_t0@0 () Real)
(declare-fun __z3_2 () Real)
(declare-fun fluent_ready_i1_t3@1 () Bool)
(declare-fun fluent_ready_i2_t3@1 () Bool)
(declare-fun fluent_counter_t1@0 () Real)
(declare-fun fluent_started_i0_t1@1 () Bool)
(declare-fun __z3_3 () Real)
(declare-fun fluent_counter_t2@0 () Real)
(declare-fun act_make_treatment@1 () Bool)
(declare-fun fluent_counter_t3@0 () Real)
(declare-fun fluent_started_i1_t1@1 () Bool)
(declare-fun __z3_4 () Real)
(declare-fun dur_make_treatment@1 () Real)
(declare-fun t@1 () Real)
(declare-fun __z3_5 () Real)
(declare-fun fluent_started_i2_t1@1 () Bool)
(declare-fun parameter_make_treatment_t@1 () Real)
(declare-fun __z3_6 () Real)
(declare-fun fluent_started_i0_t2@1 () Bool)
(declare-fun parameter_make_treatment_i@1 () Real)
(declare-fun __z3_7 () Real)
(declare-fun fluent_started_i1_t2@1 () Bool)
(declare-fun __z3_0 () Real)
(declare-fun fluent_started_i2_t2@1 () Bool)
(declare-fun __z3_1 () Real)
(declare-fun parameter_make_treatment_next@1 () Real)
(declare-fun fluent_treated_i0_t1@1 () Bool)
(declare-fun fluent_treated_i1_t1@1 () Bool)
(declare-fun fluent_counter_t0@1 () Real)
(declare-fun fluent_counter_t1@1 () Real)
(declare-fun fluent_counter_t2@1 () Real)
(declare-fun fluent_treated_i2_t1@1 () Bool)
(assert (let ((.def_0 (= __z3_1 __z3_7))) (let ((.def_1 (= parameter_make_treatment_t@1 6.0))) (let ((.def_2 (or .def_1 .def_0))) (let ((.def_3 (= __z3_1 fluent_counter_t3@1))) (let ((.def_4 (not .def_1))) (let ((.def_5 (or .def_4 .def_3))) (let ((.def_6 (= __z3_7 __z3_6))) (let ((.def_7 (= parameter_make_treatment_t@1 5.0))) (let ((.def_8 (or .def_7 .def_6))) (let ((.def_9 (= __z3_7 fluent_counter_t2@1))) (let ((.def_10 (not .def_7))) (let ((.def_11 (or .def_10 .def_9))) (let ((.def_12 (= __z3_6 fluent_counter_t0@1))) (let ((.def_13 (= parameter_make_treatment_t@1 4.0))) (let ((.def_14 (or .def_13 .def_12))) (let ((.def_15 (= __z3_6 fluent_counter_t1@1))) (let ((.def_16 (not .def_13))) (let ((.def_17 (or .def_16 .def_15))) (let ((.def_18 (= __z3_0 __z3_5))) (let ((.def_19 (or .def_1 .def_18))) (let ((.def_20 (= __z3_0 fluent_counter_t3@0))) (let ((.def_21 (or .def_4 .def_20))) (let ((.def_22 (= __z3_5 __z3_4))) (let ((.def_23 (or .def_7 .def_22))) (let ((.def_24 (= __z3_5 fluent_counter_t2@0))) (let ((.def_25 (or .def_10 .def_24))) (let ((.def_26 (= __z3_4 fluent_counter_t0@0))) (let ((.def_27 (or .def_13 .def_26))) (let ((.def_28 (= __z3_4 fluent_counter_t1@0))) (let ((.def_29 (or .def_16 .def_28))) (let ((.def_30 (= __z3_2 __z3_3))) (let ((.def_31 (= parameter_make_treatment_i@1 2.0))) (let ((.def_32 (or .def_31 .def_30))) (let ((.def_33 (= __z3_2 2.0))) (let ((.def_34 (not .def_31))) (let ((.def_35 (or .def_34 .def_33))) (let ((.def_36 (= __z3_3 0.0))) (let ((.def_37 (= parameter_make_treatment_i@1 1.0))) (let ((.def_38 (or .def_37 .def_36))) (let ((.def_39 (= __z3_3 1.0))) (let ((.def_40 (not .def_37))) (let ((.def_41 (or .def_40 .def_39))) (let ((.def_42 (<= 0.0 fluent_counter_t2@1))) (let ((.def_43 (= parameter_make_treatment_t@1 3.0))) (let ((.def_44 (or .def_43 .def_13 .def_7 .def_1))) (let ((.def_45 (<= 0.0 fluent_counter_t1@1))) (let ((.def_46 (<= fluent_counter_t0@1 31.0))) (let ((.def_47 (<= 0.0 fluent_counter_t0@1))) (let ((.def_48 (= parameter_make_treatment_next@1 6.0))) (let ((.def_49 (= parameter_make_treatment_next@1 5.0))) (let ((.def_50 (= parameter_make_treatment_next@1 4.0))) (let ((.def_51 (= parameter_make_treatment_next@1 3.0))) (let ((.def_52 (or .def_51 .def_50 .def_49 .def_48))) (let ((.def_53 (<= fluent_counter_t1@1 31.0))) (let ((.def_54 (<= fluent_counter_t3@1 31.0))) (let ((.def_55 (<= 0.0 fluent_counter_t3@1))) (let ((.def_56 (= parameter_make_treatment_i@1 0.0))) (let ((.def_57 (or .def_56 .def_37 .def_31))) (let ((.def_58 (<= fluent_counter_t2@1 31.0))) (let ((.def_59 (and act_make_treatment@1 true .def_1))) (let ((.def_60 (= fluent_counter_t3@0 fluent_counter_t3@1))) (let ((.def_61 (not .def_60))) (let ((.def_62 (=> .def_61 .def_59))) (let ((.def_63 (and act_make_treatment@1 true .def_7))) (let ((.def_64 (= fluent_counter_t2@0 fluent_counter_t2@1))) (let ((.def_65 (not .def_64))) (let ((.def_66 (=> .def_65 .def_63))) (let ((.def_67 (and act_make_treatment@1 true .def_13))) (let ((.def_68 (= fluent_counter_t1@0 fluent_counter_t1@1))) (let ((.def_69 (not .def_68))) (let ((.def_70 (=> .def_69 .def_67))) (let ((.def_71 (and act_make_treatment@1 true .def_43))) (let ((.def_72 (= fluent_counter_t0@0 fluent_counter_t0@1))) (let ((.def_73 (not .def_72))) (let ((.def_74 (=> .def_73 .def_71))) (let ((.def_75 (+ t@1 10.0))) (let ((.def_76 (= t@1 .def_75))) (let ((.def_77 (and act_make_treatment@1 true .def_76 .def_31 .def_48))) (let ((.def_78 (= fluent_ready_i2_t3@0 fluent_ready_i2_t3@1))) (let ((.def_79 (not .def_78))) (let ((.def_80 (=> .def_79 .def_77))) (let ((.def_81 (and act_make_treatment@1 true .def_76 .def_37 .def_48))) (let ((.def_82 (= fluent_ready_i1_t3@0 fluent_ready_i1_t3@1))) (let ((.def_83 (not .def_82))) (let ((.def_84 (=> .def_83 .def_81))) (let ((.def_85 (and act_make_treatment@1 true .def_76 .def_56 .def_48))) (let ((.def_86 (= fluent_ready_i0_t3@0 fluent_ready_i0_t3@1))) (let ((.def_87 (not .def_86))) (let ((.def_88 (=> .def_87 .def_85))) (let ((.def_89 (and act_make_treatment@1 true .def_76 .def_31 .def_49))) (let ((.def_90 (= fluent_ready_i2_t2@0 fluent_ready_i2_t2@1))) (let ((.def_91 (not .def_90))) (let ((.def_92 (=> .def_91 .def_89))) (let ((.def_93 (and act_make_treatment@1 true .def_76 .def_37 .def_49))) (let ((.def_94 (= fluent_ready_i1_t2@0 fluent_ready_i1_t2@1))) (let ((.def_95 (not .def_94))) (let ((.def_96 (=> .def_95 .def_93))) (let ((.def_97 (and act_make_treatment@1 true .def_76 .def_56 .def_49))) (let ((.def_98 (= fluent_ready_i0_t2@0 fluent_ready_i0_t2@1))) (let ((.def_99 (not .def_98))) (let ((.def_100 (=> .def_99 .def_97))) (let ((.def_101 (and act_make_treatment@1 true .def_76 .def_31 .def_50))) (let ((.def_102 (= fluent_ready_i2_t1@0 fluent_ready_i2_t1@1))) (let ((.def_103 (not .def_102))) (let ((.def_104 (=> .def_103 .def_101))) (let ((.def_105 (and act_make_treatment@1 true .def_76 .def_37 .def_50))) (let ((.def_106 (= fluent_ready_i1_t1@0 fluent_ready_i1_t1@1))) (let ((.def_107 (not .def_106))) (let ((.def_108 (=> .def_107 .def_105))) (let ((.def_109 (and act_make_treatment@1 true .def_76 .def_56 .def_50))) (let ((.def_110 (= fluent_ready_i0_t1@0 fluent_ready_i0_t1@1))) (let ((.def_111 (not .def_110))) (let ((.def_112 (=> .def_111 .def_109))) (let ((.def_113 (and act_make_treatment@1 true .def_76 .def_31 .def_51))) (let ((.def_114 (= fluent_ready_i2_t0@0 fluent_ready_i2_t0@1))) (let ((.def_115 (not .def_114))) (let ((.def_116 (=> .def_115 .def_113))) (let ((.def_117 (and act_make_treatment@1 true .def_76 .def_37 .def_51))) (let ((.def_118 (= fluent_ready_i1_t0@0 fluent_ready_i1_t0@1))) (let ((.def_119 (not .def_118))) (let ((.def_120 (=> .def_119 .def_117))) (let ((.def_121 (and act_make_treatment@1 true .def_76 .def_56 .def_51))) (let ((.def_122 (= fluent_ready_i0_t0@0 fluent_ready_i0_t0@1))) (let ((.def_123 (not .def_122))) (let ((.def_124 (=> .def_123 .def_121))) (let ((.def_125 (and act_make_treatment@1 true .def_31 .def_1))) (let ((.def_126 (= fluent_started_i2_t3@0 fluent_started_i2_t3@1))) (let ((.def_127 (not .def_126))) (let ((.def_128 (=> .def_127 .def_125))) (let ((.def_129 (and act_make_treatment@1 true .def_37 .def_1))) (let ((.def_130 (= fluent_started_i1_t3@0 fluent_started_i1_t3@1))) (let ((.def_131 (not .def_130))) (let ((.def_132 (=> .def_131 .def_129))) (let ((.def_133 (and act_make_treatment@1 true .def_56 .def_1))) (let ((.def_134 (= fluent_started_i0_t3@0 fluent_started_i0_t3@1))) (let ((.def_135 (not .def_134))) (let ((.def_136 (=> .def_135 .def_133))) (let ((.def_137 (and act_make_treatment@1 true .def_31 .def_7))) (let ((.def_138 (= fluent_started_i2_t2@0 fluent_started_i2_t2@1))) (let ((.def_139 (not .def_138))) (let ((.def_140 (=> .def_139 .def_137))) (let ((.def_141 (and act_make_treatment@1 true .def_37 .def_7))) (let ((.def_142 (= fluent_started_i1_t2@0 fluent_started_i1_t2@1))) (let ((.def_143 (not .def_142))) (let ((.def_144 (=> .def_143 .def_141))) (let ((.def_145 (and act_make_treatment@1 true .def_56 .def_7))) (let ((.def_146 (= fluent_started_i0_t2@0 fluent_started_i0_t2@1))) (let ((.def_147 (not .def_146))) (let ((.def_148 (=> .def_147 .def_145))) (let ((.def_149 (and act_make_treatment@1 true .def_31 .def_13))) (let ((.def_150 (= fluent_started_i2_t1@0 fluent_started_i2_t1@1))) (let ((.def_151 (not .def_150))) (let ((.def_152 (=> .def_151 .def_149))) (let ((.def_153 (and act_make_treatment@1 true .def_37 .def_13))) (let ((.def_154 (= fluent_started_i1_t1@0 fluent_started_i1_t1@1))) (let ((.def_155 (not .def_154))) (let ((.def_156 (=> .def_155 .def_153))) (let ((.def_157 (and act_make_treatment@1 true .def_56 .def_13))) (let ((.def_158 (= fluent_started_i0_t1@0 fluent_started_i0_t1@1))) (let ((.def_159 (not .def_158))) (let ((.def_160 (=> .def_159 .def_157))) (let ((.def_161 (and act_make_treatment@1 true .def_31 .def_43))) (let ((.def_162 (= fluent_started_i2_t0@0 fluent_started_i2_t0@1))) (let ((.def_163 (not .def_162))) (let ((.def_164 (=> .def_163 .def_161))) (let ((.def_165 (and act_make_treatment@1 true .def_37 .def_43))) (let ((.def_166 (= fluent_started_i1_t0@0 fluent_started_i1_t0@1))) (let ((.def_167 (not .def_166))) (let ((.def_168 (=> .def_167 .def_165))) (let ((.def_169 (and act_make_treatment@1 true .def_56 .def_43))) (let ((.def_170 (= fluent_started_i0_t0@0 fluent_started_i0_t0@1))) (let ((.def_171 (not .def_170))) (let ((.def_172 (=> .def_171 .def_169))) (let ((.def_173 (+ t@1 4.0))) (let ((.def_174 (= t@1 .def_173))) (let ((.def_175 (and act_make_treatment@1 true .def_174 .def_31 .def_1))) (let ((.def_176 (= fluent_treated_i2_t3@0 fluent_treated_i2_t3@1))) (let ((.def_177 (not .def_176))) (let ((.def_178 (=> .def_177 .def_175))) (let ((.def_179 (and act_make_treatment@1 true .def_174 .def_37 .def_1))) (let ((.def_180 (= fluent_treated_i1_t3@0 fluent_treated_i1_t3@1))) (let ((.def_181 (not .def_180))) (let ((.def_182 (=> .def_181 .def_179))) (let ((.def_183 (and act_make_treatment@1 true .def_174 .def_56 .def_1))) (let ((.def_184 (= fluent_treated_i0_t3@0 fluent_treated_i0_t3@1))) (let ((.def_185 (not .def_184))) (let ((.def_186 (=> .def_185 .def_183))) (let ((.def_187 (and act_make_treatment@1 true .def_174 .def_31 .def_7))) (let ((.def_188 (= fluent_treated_i2_t2@0 fluent_treated_i2_t2@1))) (let ((.def_189 (not .def_188))) (let ((.def_190 (=> .def_189 .def_187))) (let ((.def_191 (and act_make_treatment@1 true .def_174 .def_37 .def_7))) (let ((.def_192 (= fluent_treated_i1_t2@0 fluent_treated_i1_t2@1))) (let ((.def_193 (not .def_192))) (let ((.def_194 (=> .def_193 .def_191))) (let ((.def_195 (and act_make_treatment@1 true .def_174 .def_56 .def_7))) (let ((.def_196 (= fluent_treated_i0_t2@0 fluent_treated_i0_t2@1))) (let ((.def_197 (not .def_196))) (let ((.def_198 (=> .def_197 .def_195))) (let ((.def_199 (and act_make_treatment@1 true .def_174 .def_31 .def_13))) (let ((.def_200 (= fluent_treated_i2_t1@0 fluent_treated_i2_t1@1))) (let ((.def_201 (not .def_200))) (let ((.def_202 (=> .def_201 .def_199))) (let ((.def_203 (and act_make_treatment@1 true .def_174 .def_37 .def_13))) (let ((.def_204 (= fluent_treated_i1_t1@0 fluent_treated_i1_t1@1))) (let ((.def_205 (not .def_204))) (let ((.def_206 (=> .def_205 .def_203))) (let ((.def_207 (and act_make_treatment@1 true .def_174 .def_56 .def_13))) (let ((.def_208 (= fluent_treated_i0_t1@0 fluent_treated_i0_t1@1))) (let ((.def_209 (not .def_208))) (let ((.def_210 (=> .def_209 .def_207))) (let ((.def_211 (and act_make_treatment@1 true .def_174 .def_31 .def_43))) (let ((.def_212 (= fluent_treated_i2_t0@0 fluent_treated_i2_t0@1))) (let ((.def_213 (not .def_212))) (let ((.def_214 (=> .def_213 .def_211))) (let ((.def_215 (and act_make_treatment@1 true .def_174 .def_37 .def_43))) (let ((.def_216 (= fluent_treated_i1_t0@0 fluent_treated_i1_t0@1))) (let ((.def_217 (not .def_216))) (let ((.def_218 (=> .def_217 .def_215))) (let ((.def_219 (and act_make_treatment@1 true .def_174 .def_56 .def_43))) (let ((.def_220 (= fluent_treated_i0_t0@0 fluent_treated_i0_t0@1))) (let ((.def_221 (not .def_220))) (let ((.def_222 (=> .def_221 .def_219))) (let ((.def_223 (and act_make_treatment@1 true .def_174))) (let ((.def_224 (and act_make_treatment@1 true))) (let ((.def_225 (and .def_224 .def_223))) (let ((.def_226 (not .def_225))) (let ((.def_227 (or .def_224 .def_223))) (let ((.def_228 (= fluent_busy_@0 fluent_busy_@1))) (let ((.def_229 (not .def_228))) (let ((.def_230 (=> .def_229 .def_227))) (let ((.def_231 (<= 0.0 t@1))) (let ((.def_232 (and .def_37 .def_51))) (let ((.def_233 (or .def_232 fluent_ready_i0_t0@1))) (let ((.def_234 (not .def_232))) (let ((.def_235 (or .def_234 fluent_ready_i1_t0@1))) (let ((.def_236 (and .def_235 .def_233))) (let ((.def_237 (and .def_31 .def_51))) (let ((.def_238 (or .def_237 .def_236))) (let ((.def_239 (not .def_237))) (let ((.def_240 (or .def_239 fluent_ready_i2_t0@1))) (let ((.def_241 (and .def_240 .def_238))) (let ((.def_242 (and .def_56 .def_50))) (let ((.def_243 (or .def_242 .def_241))) (let ((.def_244 (not .def_242))) (let ((.def_245 (or .def_244 fluent_ready_i0_t1@1))) (let ((.def_246 (and .def_245 .def_243))) (let ((.def_247 (and .def_37 .def_50))) (let ((.def_248 (or .def_247 .def_246))) (let ((.def_249 (not .def_247))) (let ((.def_250 (or .def_249 fluent_ready_i1_t1@1))) (let ((.def_251 (and .def_250 .def_248))) (let ((.def_252 (and .def_31 .def_50))) (let ((.def_253 (or .def_252 .def_251))) (let ((.def_254 (not .def_252))) (let ((.def_255 (or .def_254 fluent_ready_i2_t1@1))) (let ((.def_256 (and .def_255 .def_253))) (let ((.def_257 (and .def_56 .def_49))) (let ((.def_258 (or .def_257 .def_256))) (let ((.def_259 (not .def_257))) (let ((.def_260 (or .def_259 fluent_ready_i0_t2@1))) (let ((.def_261 (and .def_260 .def_258))) (let ((.def_262 (and .def_37 .def_49))) (let ((.def_263 (or .def_262 .def_261))) (let ((.def_264 (not .def_262))) (let ((.def_265 (or .def_264 fluent_ready_i1_t2@1))) (let ((.def_266 (and .def_265 .def_263))) (let ((.def_267 (and .def_31 .def_49))) (let ((.def_268 (or .def_267 .def_266))) (let ((.def_269 (not .def_267))) (let ((.def_270 (or .def_269 fluent_ready_i2_t2@1))) (let ((.def_271 (and .def_270 .def_268))) (let ((.def_272 (and .def_56 .def_48))) (let ((.def_273 (or .def_272 .def_271))) (let ((.def_274 (not .def_272))) (let ((.def_275 (or .def_274 fluent_ready_i0_t3@1))) (let ((.def_276 (and .def_275 .def_273))) (let ((.def_277 (and .def_37 .def_48))) (let ((.def_278 (or .def_277 .def_276))) (let ((.def_279 (not .def_277))) (let ((.def_280 (or .def_279 fluent_ready_i1_t3@1))) (let ((.def_281 (and .def_280 .def_278))) (let ((.def_282 (and .def_31 .def_48))) (let ((.def_283 (or .def_282 .def_281))) (let ((.def_284 (not .def_282))) (let ((.def_285 (or .def_284 fluent_ready_i2_t3@1))) (let ((.def_286 (and .def_285 .def_283))) (let ((.def_287 (= .def_286 true))) (let ((.def_288 (=> true .def_287))) (let ((.def_289 (and .def_76 .def_288))) (let ((.def_290 (= fluent_busy_@1 false))) (let ((.def_291 (=> true .def_290))) (let ((.def_292 (and .def_37 .def_43))) (let ((.def_293 (or .def_292 fluent_treated_i0_t0@1))) (let ((.def_294 (not .def_292))) (let ((.def_295 (or .def_294 fluent_treated_i1_t0@1))) (let ((.def_296 (and .def_295 .def_293))) (let ((.def_297 (and .def_31 .def_43))) (let ((.def_298 (or .def_297 .def_296))) (let ((.def_299 (not .def_297))) (let ((.def_300 (or .def_299 fluent_treated_i2_t0@1))) (let ((.def_301 (and .def_300 .def_298))) (let ((.def_302 (and .def_56 .def_13))) (let ((.def_303 (or .def_302 .def_301))) (let ((.def_304 (not .def_302))) (let ((.def_305 (or .def_304 fluent_treated_i0_t1@1))) (let ((.def_306 (and .def_305 .def_303))) (let ((.def_307 (and .def_37 .def_13))) (let ((.def_308 (or .def_307 .def_306))) (let ((.def_309 (not .def_307))) (let ((.def_310 (or .def_309 fluent_treated_i1_t1@1))) (let ((.def_311 (and .def_310 .def_308))) (let ((.def_312 (and .def_31 .def_13))) (let ((.def_313 (or .def_312 .def_311))) (let ((.def_314 (not .def_312))) (let ((.def_315 (or .def_314 fluent_treated_i2_t1@1))) (let ((.def_316 (and .def_315 .def_313))) (let ((.def_317 (and .def_56 .def_7))) (let ((.def_318 (or .def_317 .def_316))) (let ((.def_319 (not .def_317))) (let ((.def_320 (or .def_319 fluent_treated_i0_t2@1))) (let ((.def_321 (and .def_320 .def_318))) (let ((.def_322 (and .def_37 .def_7))) (let ((.def_323 (or .def_322 .def_321))) (let ((.def_324 (not .def_322))) (let ((.def_325 (or .def_324 fluent_treated_i1_t2@1))) (let ((.def_326 (and .def_325 .def_323))) (let ((.def_327 (and .def_31 .def_7))) (let ((.def_328 (or .def_327 .def_326))) (let ((.def_329 (not .def_327))) (let ((.def_330 (or .def_329 fluent_treated_i2_t2@1))) (let ((.def_331 (and .def_330 .def_328))) (let ((.def_332 (and .def_56 .def_1))) (let ((.def_333 (or .def_332 .def_331))) (let ((.def_334 (not .def_332))) (let ((.def_335 (or .def_334 fluent_treated_i0_t3@1))) (let ((.def_336 (and .def_335 .def_333))) (let ((.def_337 (and .def_37 .def_1))) (let ((.def_338 (or .def_337 .def_336))) (let ((.def_339 (not .def_337))) (let ((.def_340 (or .def_339 fluent_treated_i1_t3@1))) (let ((.def_341 (and .def_340 .def_338))) (let ((.def_342 (and .def_31 .def_1))) (let ((.def_343 (or .def_342 .def_341))) (let ((.def_344 (not .def_342))) (let ((.def_345 (or .def_344 fluent_treated_i2_t3@1))) (let ((.def_346 (and .def_345 .def_343))) (let ((.def_347 (= .def_346 true))) (let ((.def_348 (=> true .def_347))) (let ((.def_349 (and .def_174 .def_348 .def_291))) (let ((.def_350 (or .def_292 fluent_started_i0_t0@1))) (let ((.def_351 (or .def_294 fluent_started_i1_t0@1))) (let ((.def_352 (and .def_351 .def_350))) (let ((.def_353 (or .def_297 .def_352))) (let ((.def_354 (or .def_299 fluent_started_i2_t0@1))) (let ((.def_355 (and .def_354 .def_353))) (let ((.def_356 (or .def_302 .def_355))) (let ((.def_357 (or .def_304 fluent_started_i0_t1@1))) (let ((.def_358 (and .def_357 .def_356))) (let ((.def_359 (or .def_307 .def_358))) (let ((.def_360 (or .def_309 fluent_started_i1_t1@1))) (let ((.def_361 (and .def_360 .def_359))) (let ((.def_362 (or .def_312 .def_361))) (let ((.def_363 (or .def_314 fluent_started_i2_t1@1))) (let ((.def_364 (and .def_363 .def_362))) (let ((.def_365 (or .def_317 .def_364))) (let ((.def_366 (or .def_319 fluent_started_i0_t2@1))) (let ((.def_367 (and .def_366 .def_365))) (let ((.def_368 (or .def_322 .def_367))) (let ((.def_369 (or .def_324 fluent_started_i1_t2@1))) (let ((.def_370 (and .def_369 .def_368))) (let ((.def_371 (or .def_327 .def_370))) (let ((.def_372 (or .def_329 fluent_started_i2_t2@1))) (let ((.def_373 (and .def_372 .def_371))) (let ((.def_374 (or .def_332 .def_373))) (let ((.def_375 (or .def_334 fluent_started_i0_t3@1))) (let ((.def_376 (and .def_375 .def_374))) (let ((.def_377 (or .def_337 .def_376))) (let ((.def_378 (or .def_339 fluent_started_i1_t3@1))) (let ((.def_379 (and .def_378 .def_377))) (let ((.def_380 (or .def_342 .def_379))) (let ((.def_381 (or .def_344 fluent_started_i2_t3@1))) (let ((.def_382 (and .def_381 .def_380))) (let ((.def_383 (= .def_382 true))) (let ((.def_384 (=> true .def_383))) (let ((.def_385 (= fluent_busy_@1 true))) (let ((.def_386 (=> true .def_385))) (let ((.def_387 (+ __z3_0 1.0))) (let ((.def_388 (= __z3_1 .def_387))) (let ((.def_389 (=> true .def_388))) (let ((.def_390 (= t@1 t@1))) (let ((.def_391 (and .def_390 .def_389 .def_386 .def_384))) (let ((.def_392 (or .def_232 fluent_started_i0_t0@0))) (let ((.def_393 (or .def_234 fluent_started_i1_t0@0))) (let ((.def_394 (and .def_393 .def_392))) (let ((.def_395 (or .def_237 .def_394))) (let ((.def_396 (or .def_239 fluent_started_i2_t0@0))) (let ((.def_397 (and .def_396 .def_395))) (let ((.def_398 (or .def_242 .def_397))) (let ((.def_399 (or .def_244 fluent_started_i0_t1@0))) (let ((.def_400 (and .def_399 .def_398))) (let ((.def_401 (or .def_247 .def_400))) (let ((.def_402 (or .def_249 fluent_started_i1_t1@0))) (let ((.def_403 (and .def_402 .def_401))) (let ((.def_404 (or .def_252 .def_403))) (let ((.def_405 (or .def_254 fluent_started_i2_t1@0))) (let ((.def_406 (and .def_405 .def_404))) (let ((.def_407 (or .def_257 .def_406))) (let ((.def_408 (or .def_259 fluent_started_i0_t2@0))) (let ((.def_409 (and .def_408 .def_407))) (let ((.def_410 (or .def_262 .def_409))) (let ((.def_411 (or .def_264 fluent_started_i1_t2@0))) (let ((.def_412 (and .def_411 .def_410))) (let ((.def_413 (or .def_267 .def_412))) (let ((.def_414 (or .def_269 fluent_started_i2_t2@0))) (let ((.def_415 (and .def_414 .def_413))) (let ((.def_416 (or .def_272 .def_415))) (let ((.def_417 (or .def_274 fluent_started_i0_t3@0))) (let ((.def_418 (and .def_417 .def_416))) (let ((.def_419 (or .def_277 .def_418))) (let ((.def_420 (or .def_279 fluent_started_i1_t3@0))) (let ((.def_421 (and .def_420 .def_419))) (let ((.def_422 (or .def_282 .def_421))) (let ((.def_423 (or .def_284 fluent_started_i2_t3@0))) (let ((.def_424 (and .def_423 .def_422))) (let ((.def_425 (+ t@1 dur_make_treatment@1))) (let ((.def_426 (<= .def_425 t@1))) (let ((.def_427 (< (- 1.0) .def_425))) (let ((.def_428 (and .def_427 .def_426))) (let ((.def_429 (=> .def_428 .def_424))) (let ((.def_430 (or .def_292 fluent_ready_i0_t0@0))) (let ((.def_431 (or .def_294 fluent_ready_i1_t0@0))) (let ((.def_432 (and .def_431 .def_430))) (let ((.def_433 (or .def_297 .def_432))) (let ((.def_434 (or .def_299 fluent_ready_i2_t0@0))) (let ((.def_435 (and .def_434 .def_433))) (let ((.def_436 (or .def_302 .def_435))) (let ((.def_437 (or .def_304 fluent_ready_i0_t1@0))) (let ((.def_438 (and .def_437 .def_436))) (let ((.def_439 (or .def_307 .def_438))) (let ((.def_440 (or .def_309 fluent_ready_i1_t1@0))) (let ((.def_441 (and .def_440 .def_439))) (let ((.def_442 (or .def_312 .def_441))) (let ((.def_443 (or .def_314 fluent_ready_i2_t1@0))) (let ((.def_444 (and .def_443 .def_442))) (let ((.def_445 (or .def_317 .def_444))) (let ((.def_446 (or .def_319 fluent_ready_i0_t2@0))) (let ((.def_447 (and .def_446 .def_445))) (let ((.def_448 (or .def_322 .def_447))) (let ((.def_449 (or .def_324 fluent_ready_i1_t2@0))) (let ((.def_450 (and .def_449 .def_448))) (let ((.def_451 (or .def_327 .def_450))) (let ((.def_452 (or .def_329 fluent_ready_i2_t2@0))) (let ((.def_453 (and .def_452 .def_451))) (let ((.def_454 (or .def_332 .def_453))) (let ((.def_455 (or .def_334 fluent_ready_i0_t3@0))) (let ((.def_456 (and .def_455 .def_454))) (let ((.def_457 (or .def_337 .def_456))) (let ((.def_458 (or .def_339 fluent_ready_i1_t3@0))) (let ((.def_459 (and .def_458 .def_457))) (let ((.def_460 (or .def_342 .def_459))) (let ((.def_461 (or .def_344 fluent_ready_i2_t3@0))) (let ((.def_462 (and .def_461 .def_460))) (let ((.def_463 (or .def_292 fluent_started_i0_t0@0))) (let ((.def_464 (or .def_294 fluent_started_i1_t0@0))) (let ((.def_465 (and .def_464 .def_463))) (let ((.def_466 (or .def_297 .def_465))) (let ((.def_467 (or .def_299 fluent_started_i2_t0@0))) (let ((.def_468 (and .def_467 .def_466))) (let ((.def_469 (or .def_302 .def_468))) (let ((.def_470 (or .def_304 fluent_started_i0_t1@0))) (let ((.def_471 (and .def_470 .def_469))) (let ((.def_472 (or .def_307 .def_471))) (let ((.def_473 (or .def_309 fluent_started_i1_t1@0))) (let ((.def_474 (and .def_473 .def_472))) (let ((.def_475 (or .def_312 .def_474))) (let ((.def_476 (or .def_314 fluent_started_i2_t1@0))) (let ((.def_477 (and .def_476 .def_475))) (let ((.def_478 (or .def_317 .def_477))) (let ((.def_479 (or .def_319 fluent_started_i0_t2@0))) (let ((.def_480 (and .def_479 .def_478))) (let ((.def_481 (or .def_322 .def_480))) (let ((.def_482 (or .def_324 fluent_started_i1_t2@0))) (let ((.def_483 (and .def_482 .def_481))) (let ((.def_484 (or .def_327 .def_483))) (let ((.def_485 (or .def_329 fluent_started_i2_t2@0))) (let ((.def_486 (and .def_485 .def_484))) (let ((.def_487 (or .def_332 .def_486))) (let ((.def_488 (or .def_334 fluent_started_i0_t3@0))) (let ((.def_489 (and .def_488 .def_487))) (let ((.def_490 (or .def_337 .def_489))) (let ((.def_491 (or .def_339 fluent_started_i1_t3@0))) (let ((.def_492 (and .def_491 .def_490))) (let ((.def_493 (or .def_342 .def_492))) (let ((.def_494 (or .def_344 fluent_started_i2_t3@0))) (let ((.def_495 (and .def_494 .def_493))) (let ((.def_496 (not .def_495))) (let ((.def_497 (or .def_292 fluent_treated_i0_t0@0))) (let ((.def_498 (or .def_294 fluent_treated_i1_t0@0))) (let ((.def_499 (and .def_498 .def_497))) (let ((.def_500 (or .def_297 .def_499))) (let ((.def_501 (or .def_299 fluent_treated_i2_t0@0))) (let ((.def_502 (and .def_501 .def_500))) (let ((.def_503 (or .def_302 .def_502))) (let ((.def_504 (or .def_304 fluent_treated_i0_t1@0))) (let ((.def_505 (and .def_504 .def_503))) (let ((.def_506 (or .def_307 .def_505))) (let ((.def_507 (or .def_309 fluent_treated_i1_t1@0))) (let ((.def_508 (and .def_507 .def_506))) (let ((.def_509 (or .def_312 .def_508))) (let ((.def_510 (or .def_314 fluent_treated_i2_t1@0))) (let ((.def_511 (and .def_510 .def_509))) (let ((.def_512 (or .def_317 .def_511))) (let ((.def_513 (or .def_319 fluent_treated_i0_t2@0))) (let ((.def_514 (and .def_513 .def_512))) (let ((.def_515 (or .def_322 .def_514))) (let ((.def_516 (or .def_324 fluent_treated_i1_t2@0))) (let ((.def_517 (and .def_516 .def_515))) (let ((.def_518 (or .def_327 .def_517))) (let ((.def_519 (or .def_329 fluent_treated_i2_t2@0))) (let ((.def_520 (and .def_519 .def_518))) (let ((.def_521 (or .def_332 .def_520))) (let ((.def_522 (or .def_334 fluent_treated_i0_t3@0))) (let ((.def_523 (and .def_522 .def_521))) (let ((.def_524 (or .def_337 .def_523))) (let ((.def_525 (or .def_339 fluent_treated_i1_t3@0))) (let ((.def_526 (and .def_525 .def_524))) (let ((.def_527 (or .def_342 .def_526))) (let ((.def_528 (or .def_344 fluent_treated_i2_t3@0))) (let ((.def_529 (and .def_528 .def_527))) (let ((.def_530 (not .def_529))) (let ((.def_531 (not fluent_busy_@0))) (let ((.def_532 (and .def_13 .def_51))) (let ((.def_533 (or .def_532 false))) (let ((.def_534 (not .def_532))) (let ((.def_535 (or .def_534 false))) (let ((.def_536 (and .def_535 .def_533))) (let ((.def_537 (and .def_7 .def_51))) (let ((.def_538 (or .def_537 .def_536))) (let ((.def_539 (not .def_537))) (let ((.def_540 (or .def_539 false))) (let ((.def_541 (and .def_540 .def_538))) (let ((.def_542 (and .def_1 .def_51))) (let ((.def_543 (or .def_542 .def_541))) (let ((.def_544 (not .def_542))) (let ((.def_545 (or .def_544 false))) (let ((.def_546 (and .def_545 .def_543))) (let ((.def_547 (and .def_43 .def_50))) (let ((.def_548 (or .def_547 .def_546))) (let ((.def_549 (not .def_547))) (let ((.def_550 (or .def_549 true))) (let ((.def_551 (and .def_550 .def_548))) (let ((.def_552 (and .def_13 .def_50))) (let ((.def_553 (or .def_552 .def_551))) (let ((.def_554 (not .def_552))) (let ((.def_555 (or .def_554 false))) (let ((.def_556 (and .def_555 .def_553))) (let ((.def_557 (and .def_7 .def_50))) (let ((.def_558 (or .def_557 .def_556))) (let ((.def_559 (not .def_557))) (let ((.def_560 (or .def_559 false))) (let ((.def_561 (and .def_560 .def_558))) (let ((.def_562 (and .def_1 .def_50))) (let ((.def_563 (or .def_562 .def_561))) (let ((.def_564 (not .def_562))) (let ((.def_565 (or .def_564 false))) (let ((.def_566 (and .def_565 .def_563))) (let ((.def_567 (and .def_43 .def_49))) (let ((.def_568 (or .def_567 .def_566))) (let ((.def_569 (not .def_567))) (let ((.def_570 (or .def_569 false))) (let ((.def_571 (and .def_570 .def_568))) (let ((.def_572 (and .def_13 .def_49))) (let ((.def_573 (or .def_572 .def_571))) (let ((.def_574 (not .def_572))) (let ((.def_575 (or .def_574 true))) (let ((.def_576 (and .def_575 .def_573))) (let ((.def_577 (and .def_7 .def_49))) (let ((.def_578 (or .def_577 .def_576))) (let ((.def_579 (not .def_577))) (let ((.def_580 (or .def_579 false))) (let ((.def_581 (and .def_580 .def_578))) (let ((.def_582 (and .def_1 .def_49))) (let ((.def_583 (or .def_582 .def_581))) (let ((.def_584 (not .def_582))) (let ((.def_585 (or .def_584 false))) (let ((.def_586 (and .def_585 .def_583))) (let ((.def_587 (and .def_43 .def_48))) (let ((.def_588 (or .def_587 .def_586))) (let ((.def_589 (not .def_587))) (let ((.def_590 (or .def_589 false))) (let ((.def_591 (and .def_590 .def_588))) (let ((.def_592 (and .def_13 .def_48))) (let ((.def_593 (or .def_592 .def_591))) (let ((.def_594 (not .def_592))) (let ((.def_595 (or .def_594 false))) (let ((.def_596 (and .def_595 .def_593))) (let ((.def_597 (and .def_7 .def_48))) (let ((.def_598 (or .def_597 .def_596))) (let ((.def_599 (not .def_597))) (let ((.def_600 (or .def_599 true))) (let ((.def_601 (and .def_600 .def_598))) (let ((.def_602 (and .def_1 .def_48))) (let ((.def_603 (or .def_602 .def_601))) (let ((.def_604 (not .def_602))) (let ((.def_605 (or .def_604 false))) (let ((.def_606 (and .def_605 .def_603))) (let ((.def_607 (= __z3_2 __z3_0))) (let ((.def_608 (and .def_607 .def_606 .def_531 .def_530 .def_496 .def_462))) (let ((.def_609 (<= t@1 t@1))) (let ((.def_610 (< (- 1.0) t@1))) (let ((.def_611 (and .def_610 .def_609))) (let ((.def_612 (=> .def_611 .def_608))) (let ((.def_613 (<= dur_make_treatment@1 15.0))) (let ((.def_614 (<= 15.0 dur_make_treatment@1))) (let ((.def_615 (and .def_614 .def_613))) (let ((.def_616 (and .def_615 .def_426 .def_612 .def_429 .def_391 .def_349 .def_289))) (let ((.def_617 (=> act_make_treatment@1 .def_616))) (let ((.def_618 (<= fluent_counter_t1@0 31.0))) (let ((.def_619 (<= 0.0 fluent_counter_t1@0))) (let ((.def_620 (<= fluent_counter_t0@0 31.0))) (let ((.def_621 (<= 0.0 fluent_counter_t0@0))) (let ((.def_622 (<= fluent_counter_t3@0 31.0))) (let ((.def_623 (<= 0.0 fluent_counter_t3@0))) (let ((.def_624 (<= fluent_counter_t2@0 31.0))) (let ((.def_625 (<= 0.0 fluent_counter_t2@0))) (let ((.def_626 (= fluent_counter_t3@0 0.0))) (let ((.def_627 (= fluent_counter_t2@0 0.0))) (let ((.def_628 (= fluent_counter_t1@0 0.0))) (let ((.def_629 (= fluent_counter_t0@0 0.0))) (let ((.def_630 (= false false))) (let ((.def_631 (= fluent_ready_i2_t3@0 false))) (let ((.def_632 (= fluent_ready_i1_t3@0 false))) (let ((.def_633 (= fluent_ready_i0_t3@0 false))) (let ((.def_634 (= fluent_ready_i2_t2@0 false))) (let ((.def_635 (= fluent_ready_i1_t2@0 false))) (let ((.def_636 (= fluent_ready_i0_t2@0 false))) (let ((.def_637 (= fluent_ready_i2_t1@0 false))) (let ((.def_638 (= fluent_ready_i1_t1@0 false))) (let ((.def_639 (= fluent_ready_i0_t1@0 false))) (let ((.def_640 (= fluent_started_i2_t2@0 false))) (let ((.def_641 (= fluent_started_i1_t2@0 false))) (let ((.def_642 (= fluent_started_i0_t2@0 false))) (let ((.def_643 (= fluent_started_i2_t1@0 false))) (let ((.def_644 (= fluent_started_i1_t1@0 false))) (let ((.def_645 (= fluent_started_i0_t1@0 false))) (let ((.def_646 (= fluent_started_i2_t0@0 false))) (let ((.def_647 (= fluent_started_i1_t0@0 false))) (let ((.def_648 (= fluent_started_i0_t0@0 false))) (let ((.def_649 (= fluent_treated_i2_t3@0 false))) (let ((.def_650 (= fluent_treated_i1_t3@0 false))) (let ((.def_651 (= fluent_treated_i0_t3@0 false))) (let ((.def_652 (= fluent_treated_i2_t2@0 false))) (let ((.def_653 (= fluent_treated_i1_t2@0 false))) (let ((.def_654 (= fluent_treated_i0_t2@0 false))) (let ((.def_655 (= fluent_treated_i2_t1@0 false))) (let ((.def_656 (= fluent_treated_i1_t1@0 false))) (let ((.def_657 (= fluent_treated_i0_t1@0 false))) (let ((.def_658 (= fluent_treated_i2_t0@0 false))) (let ((.def_659 (= fluent_treated_i1_t0@0 false))) (let ((.def_660 (= fluent_treated_i0_t0@0 false))) (let ((.def_661 (= fluent_busy_@0 false))) (let ((.def_662 (= fluent_ready_i2_t0@0 true))) (let ((.def_663 (= fluent_started_i2_t3@0 true))) (let ((.def_664 (= fluent_ready_i1_t0@0 true))) (let ((.def_665 (= fluent_started_i1_t3@0 true))) (let ((.def_666 (= fluent_ready_i0_t0@0 true))) (let ((.def_667 (= fluent_started_i0_t3@0 true))) (let ((.def_668 (= true true))) (let ((.def_669 (= 2.0 2.0))) (let ((.def_670 (= 1.0 1.0))) (let ((.def_671 (= 0.0 0.0))) (let ((.def_672 (and .def_671 .def_670 .def_669 .def_668 .def_668 .def_668 .def_667 .def_666 .def_665 .def_664 .def_663 .def_662 .def_661 .def_660 .def_659 .def_658 .def_657 .def_656 .def_655 .def_654 .def_653 .def_652 .def_651 .def_650 .def_649 .def_648 .def_647 .def_646 .def_645 .def_644 .def_643 .def_642 .def_641 .def_640 .def_639 .def_638 .def_637 .def_636 .def_635 .def_634 .def_633 .def_632 .def_631 .def_630 .def_630 .def_630 .def_630 .def_630 .def_630 .def_630 .def_630 .def_630 .def_630 .def_630 .def_630 .def_630 .def_629 .def_628 .def_627 .def_626 .def_625 .def_624 .def_623 .def_622 .def_621 .def_620 .def_619 .def_618 .def_617 .def_231 .def_230 .def_226 .def_222 .def_218 .def_214 .def_210 .def_206 .def_202 .def_198 .def_194 .def_190 .def_186 .def_182 .def_178 .def_172 .def_168 .def_164 .def_160 .def_156 .def_152 .def_148 .def_144 .def_140 .def_136 .def_132 .def_128 .def_124 .def_120 .def_116 .def_112 .def_108 .def_104 .def_100 .def_96 .def_92 .def_88 .def_84 .def_80 .def_74 .def_70 .def_66 .def_62 .def_58 .def_57 .def_55 .def_54 .def_53 .def_52 .def_47 .def_46 .def_45 .def_44 .def_42 .def_41 .def_38 .def_35 .def_32 .def_29 .def_27 .def_25 .def_23 .def_21 .def_19 .def_17 .def_14 .def_11 .def_8 .def_5 .def_2))) .def_672))))))))))))))))))))))))))))))))))))))))))))))))))))))))))))))))))))))))))))))))))))))))))))))))))))))))))))))))))))))))))))))))))))))))))))))))))))))))))))))))))))))))))))))))))))))))))))))))))))))))))))))))))))))))))))))))))))))))))))))))))))))))))))))))))))))))))))))))))))))))))))))))))))))))))))))))))))))))))))))))))))))))))))))))))))))))))))))))))))))))))))))))))))))))))))))))))))))))))))))))))))))))))))))))))))))))))))))))))))))))))))))))))))))))))))))))))))))))))))))))))))))))))))))))))))))))))))))))))))))))))))))))))))))))))))))))))))))))))))))))))))))))))))))))))))))))))))))))))))))))))))))))))))))))))))))))))))))))))))))))))))))))))))))))))))))))))))))))))
(check-sat)
